NAME          COPTPROB
OBJSENSE
  MIN
ROWS
 N  __OBJ___
 L  C13     
 L  C101    
 L  C179    
 L  C198    
COLUMNS
    MARKER    'MARKER'                 'INTORG'
    x456      __OBJ___  64
    x456      C101      -1
    x456      C198      -1
    x496      __OBJ___  76
    x496      C179      -1
    x496      C198      -1
    x1035     __OBJ___  17
    x1035     C13       -1
    x1594     __OBJ___  35
    x1594     C13       -1
    x1594     C101      -1
    x2840     __OBJ___  57
    x2840     C198      -1
    x4619     __OBJ___  24
    x4619     C13       -1
    x4619     C179      -1
    x4896     __OBJ___  21
    x4896     C179      -1
    MARKER    'MARKER'                 'INTEND'
RHS
    RHS       __OBJ___  -2432
    RHS       C13       -1
    RHS       C101      -1
    RHS       C179      -1
    RHS       C198      -1
BOUNDS
 UP BOUND     x456      1
 UP BOUND     x496      1
 UP BOUND     x1035     1
 UP BOUND     x1594     1
 UP BOUND     x2840     1
 UP BOUND     x4619     1
 UP BOUND     x4896     1
ENDATA
